p cnf 119 422
-5 3 0
-5 -4 0
-3 4 5 0
-6 -5 0
-6 2 0
5 -2 6 0
2 -6 -7 0
-2 6 -7 0
2 6 7 0
-2 -6 7 0
-1 7 -8 0
1 -7 -8 0
-1 -7 8 0
1 7 8 0
-11 9 0
-11 -10 0
-9 10 11 0
11 -12 -13 0
-11 12 -13 0
11 12 13 0
-11 -12 13 0
-12 15 -16 0
12 -15 -16 0
-12 -15 16 0
12 15 16 0
17 -14 0
17 -16 0
14 16 -17 0
-18 -2 0
-18 17 0
2 -17 18 0
-19 -14 0
-19 -3 0
14 3 19 0
-20 18 0
-20 19 0
-18 -19 20 0
-13 -20 -21 0
13 20 -21 0
-13 20 21 0
13 -20 21 0
-22 -8 0
-22 -21 0
8 21 22 0
24 14 0
24 -23 0
-14 23 -24 0
-25 -24 0
-25 10 0
24 -10 25 0
26 -12 0
26 25 0
12 -25 -26 0
27 -10 0
27 26 0
10 -26 -27 0
28 4 0
28 -15 0
-4 15 -28 0
27 -28 -29 0
-27 28 -29 0
27 28 29 0
-27 -28 29 0
29 4 -30 0
-29 -4 -30 0
29 -4 30 0
-29 4 30 0
22 30 -31 0
-22 -30 -31 0
22 -30 31 0
-22 30 31 0
33 -32 0
33 -2 0
32 2 -33 0
-33 18 -34 0
33 -18 -34 0
-33 -18 34 0
33 18 34 0
-34 -11 -35 0
34 11 -35 0
-34 11 35 0
34 -11 35 0
36 -34 0
36 15 0
34 -15 -36 0
37 35 0
37 -36 0
-35 36 -37 0
38 31 0
38 -37 0
-31 37 -38 0
-3 39 -40 0
3 -39 -40 0
-3 -39 40 0
3 39 40 0
-13 -28 -41 0
13 28 -41 0
-13 28 41 0
13 -28 41 0
42 -41 0
42 -15 0
41 15 -42 0
-43 -15 0
-43 -24 0
15 24 43 0
-44 -42 0
-44 -43 0
42 43 44 0
-45 -40 0
-45 44 0
40 -44 45 0
-4 -12 -46 0
4 12 -46 0
-4 12 46 0
4 -12 46 0
-47 -43 0
-47 46 0
43 -46 47 0
-48 -45 0
-48 -47 0
45 47 48 0
49 -39 0
49 32 0
39 -32 -49 0
50 49 0
50 -23 0
-49 23 -50 0
-51 -33 0
-51 -11 0
33 11 51 0
-52 -17 0
-52 32 0
17 -32 52 0
-53 33 0
-53 52 0
-33 -52 53 0
-54 -51 0
-54 -53 0
51 53 54 0
41 54 -55 0
-41 -54 -55 0
41 -54 55 0
-41 54 55 0
-56 50 0
-56 -55 0
-50 55 56 0
-48 -56 -57 0
48 56 -57 0
-48 56 57 0
48 -56 57 0
58 -38 0
58 57 0
38 -57 -58 0
-59 49 0
-59 20 0
-49 -20 59 0
60 -15 0
60 18 0
15 -18 -60 0
59 -60 -61 0
-59 60 -61 0
59 60 61 0
-59 -60 61 0
-62 6 -63 0
62 -6 -63 0
-62 -6 63 0
62 6 63 0
-64 -61 0
-64 63 0
61 -63 64 0
-54 24 -65 0
54 -24 -65 0
-54 -24 65 0
54 24 65 0
-54 12 -66 0
54 -12 -66 0
-54 -12 66 0
54 12 66 0
67 6 0
67 26 0
-6 -26 -67 0
68 67 0
68 12 0
-67 -12 -68 0
69 66 0
69 -68 0
-66 68 -69 0
65 -69 -70 0
-65 69 -70 0
65 69 70 0
-65 -69 70 0
-71 -39 0
-71 25 0
39 -25 71 0
-72 13 0
-72 71 0
-13 -71 72 0
-73 72 0
-73 -5 0
-72 5 73 0
-74 -14 0
-74 20 0
14 -20 74 0
75 73 0
75 74 0
-73 -74 -75 0
-76 -2 0
-76 -71 0
2 71 76 0
77 -76 0
77 62 0
76 -62 -77 0
78 -41 0
78 33 0
41 -33 -78 0
-77 78 -79 0
77 -78 -79 0
-77 -78 79 0
77 78 79 0
11 -5 -80 0
-11 5 -80 0
11 5 80 0
-11 -5 80 0
-81 28 0
-81 80 0
-28 -80 81 0
81 2 -82 0
-81 -2 -82 0
81 -2 82 0
-81 2 82 0
-83 -52 0
-83 82 0
52 -82 83 0
-84 79 0
-84 -83 0
-79 83 84 0
-85 32 0
-85 -53 0
-32 53 85 0
-86 42 0
-86 -49 0
-42 49 86 0
88 87 0
88 4 0
-87 -4 -88 0
89 -88 0
89 78 0
88 -78 -89 0
-90 -86 0
-90 89 0
86 -89 90 0
91 85 0
91 90 0
-85 -90 -91 0
-51 63 -92 0
51 -63 -92 0
-51 -63 92 0
51 63 92 0
-91 -92 -93 0
91 92 -93 0
-91 92 93 0
91 -92 93 0
84 -93 -94 0
-84 93 -94 0
84 93 94 0
-84 -93 94 0
95 75 0
95 94 0
-75 -94 -95 0
-70 -95 -96 0
70 95 -96 0
-70 95 96 0
70 -95 96 0
-64 96 -97 0
64 -96 -97 0
-64 -96 97 0
64 96 97 0
-98 -58 0
-98 97 0
58 -97 98 0
-99 9 0
-99 88 0
-9 -88 99 0
32 10 -100 0
-32 -10 -100 0
32 -10 100 0
-32 10 100 0
100 -19 -101 0
-100 19 -101 0
100 19 101 0
-100 -19 101 0
102 -99 0
102 -101 0
99 101 -102 0
-103 -2 0
-103 33 0
2 -33 103 0
-102 103 -104 0
102 -103 -104 0
-102 -103 104 0
102 103 104 0
98 -104 -105 0
-98 104 -105 0
98 104 105 0
-98 -104 105 0
-106 -11 0
-106 -41 0
11 41 106 0
-107 42 0
-107 62 0
-42 -62 107 0
-108 106 0
-108 107 0
-106 -107 108 0
-109 -4 0
-109 -4 0
4 109 0
87 -42 -110 0
-87 42 -110 0
87 42 110 0
-87 -42 110 0
42 -14 -111 0
-42 14 -111 0
42 14 111 0
-42 -14 111 0
112 110 0
112 -111 0
-110 111 -112 0
-109 112 -113 0
109 -112 -113 0
-109 -112 113 0
109 112 113 0
114 108 0
114 -113 0
-108 113 -114 0
-67 78 -115 0
67 -78 -115 0
-67 -78 115 0
67 78 115 0
-116 -32 0
-116 51 0
32 -51 116 0
-117 115 0
-117 116 0
-115 -116 117 0
118 -114 0
118 -117 0
114 117 -118 0
119 105 0
119 118 0
-105 -118 -119 0
-99 32 -40 51 -50 -5 0
-28 66 0
13 119 -65 94 0
48 -19 -96 -23 0
-23 49 8 0
6 -59 0
-67 -66 60 -25 0
30 -68 -31 0
-31 -87 -32 0
-44 -50 -59 0
46 -8 -44 -83 -24 104 0
-13 104 62 80 95 -116 0
115 -116 -39 19 0
-45 74 -16 17 53 -3 0
42 -100 34 2 -118 0
-39 -96 91 0
-62 -79 7 -114 68 -45 0
-56 -25 66 6 35 53 0
22 40 -20 -90 0
48 -18 17 0
-34 0
-55 14 -58 0
19 114 0
55 106 65 -95 -29 0
102 93 -80 -111 0
87 -63 -47 -31 -45 -59 0
-42 -38 -75 -10 -27 0
79 84 -14 0
18 2 95 0
108 -100 -74 -92 0
-18 -119 -49 64 -41 0
97 40 -52 -104 0
75 -84 -40 27 0
43 23 -3 -63 -61 117 0
-97 -83 -108 -88 0
-1 44 -29 41 0
-48 90 -54 0
108 1 21 84 96 0
10 118 41 -25 -109 52 0
90 32 37 0
15 13 -70 -7 -46 0
-21 -80 0
-92 70 29 85 -27 59 0
34 25 15 -23 0
-73 63 0
-29 -39 -67 58 0
-83 -98 82 0
-93 -81 0
-83 -117 -93 -40 -69 -63 0
65 -6 39 0
-109 33 -9 0
-42 -73 53 -68 0
-14 96 -82 -40 0
-63 -42 -30 -44 0
-19 -103 25 105 95 86 0
6 47 -71 -78 -14 0
95 -111 -79 93 0
11 116 -100 48 -2 0
78 -71 0
91 -55 0
3 -87 -112 -15 -59 85 0
-16 -78 0
-112 29 -69 -43 -104 0
-11 -90 44 -29 95 0
-91 -2 29 -35 -48 -52 0
-2 84 99 -15 34 0
-78 -12 5 -86 0
29 -75 0
63 112 78 0
104 90 0
119 0
